========================================================== 
File name: C:\DEGR\assets\definitions\MSRCPSP_Gen\500_40_512_10_A.def
Creation date: Sat May 06 09:16:57 CEST 2023
Website: http://imopse.ii.pwr.edu.pl/ 
Reference: 
Myszkowski P. B., Skowronski M. E., Olech L., Oslizlo K., 
Hybrid Ant Colony Optimization in solving Multi-Skill Resource-Constrained Project Scheduling Problem, 
Soft Computing, DOI: DOI 10.1007/s00500-014-1455-x 
========================================================== 
General characteristics: 
Tasks: 500
Resources: 40
Precedence relations: 510
Number of skill types: 10
========================================================== 
ResourceID 	 Salary 	 Skills 
1	 	 	36.2	 	 Q3: 2 	  Q8: 1 	 
2	 	 	81.9	 	 Q2: 3 	 
3	 	 	61.4	 	 Q8: 2 	  Q6: 3 	  Q2: 1 	  Q7: 2 	  Q1: 3 	  Q3: 2 	  Q9: 1 	  Q5: 0 	  Q4: 1 	 
4	 	 	19.1	 	 Q0: 1 	  Q5: 0 	 
5	 	 	73.1	 	 Q2: 3 	  Q5: 1 	 
6	 	 	14.8	 	 Q8: 2 	  Q2: 1 	 
7	 	 	40.9	 	 Q4: 1 	 
8	 	 	21.3	 	 Q1: 2 	  Q2: 3 	 
9	 	 	42.9	 	 Q9: 0 	  Q0: 0 	 
10	 	 	97.8	 	 Q3: 1 	  Q4: 2 	  Q5: 1 	  Q0: 0 	  Q6: 3 	  Q9: 3 	  Q1: 3 	  Q7: 3 	  Q8: 0 	 
11	 	 	67.0	 	 Q1: 1 	  Q4: 2 	  Q7: 1 	  Q3: 3 	  Q5: 3 	  Q9: 0 	 
12	 	 	38.5	 	 Q7: 3 	  Q5: 3 	 
13	 	 	93.5	 	 Q5: 0 	  Q9: 2 	  Q3: 3 	  Q0: 1 	  Q7: 2 	 
14	 	 	43.5	 	 Q2: 3 	  Q9: 3 	  Q0: 0 	  Q8: 3 	  Q1: 3 	  Q3: 3 	 
15	 	 	80.4	 	 Q7: 0 	 
16	 	 	10.7	 	 Q3: 3 	  Q4: 1 	  Q7: 1 	  Q1: 0 	 
17	 	 	32.0	 	 Q1: 1 	  Q4: 0 	  Q3: 0 	  Q5: 1 	  Q2: 1 	 
18	 	 	40.9	 	 Q1: 2 	 
19	 	 	25.2	 	 Q2: 2 	  Q1: 2 	  Q6: 1 	  Q5: 2 	 
20	 	 	57.8	 	 Q1: 2 	  Q9: 1 	  Q2: 3 	  Q4: 2 	  Q6: 3 	  Q5: 2 	  Q0: 3 	 
21	 	 	48.2	 	 Q2: 3 	  Q5: 3 	  Q9: 3 	  Q6: 2 	  Q1: 1 	  Q7: 0 	 
22	 	 	70.8	 	 Q2: 0 	  Q3: 2 	  Q5: 1 	  Q9: 0 	  Q1: 0 	  Q6: 3 	  Q8: 1 	  Q7: 0 	 
23	 	 	34.4	 	 Q2: 3 	  Q6: 1 	  Q3: 1 	  Q7: 3 	  Q8: 0 	 
24	 	 	56.1	 	 Q5: 2 	  Q8: 1 	  Q3: 1 	  Q2: 2 	  Q4: 1 	 
25	 	 	25.9	 	 Q2: 3 	  Q3: 3 	  Q7: 2 	  Q5: 2 	  Q9: 1 	  Q0: 3 	  Q6: 2 	  Q8: 2 	 
26	 	 	44.3	 	 Q6: 2 	  Q7: 2 	  Q2: 2 	  Q5: 2 	  Q0: 1 	  Q4: 1 	 
27	 	 	84.0	 	 Q7: 1 	 
28	 	 	27.9	 	 Q7: 1 	  Q3: 0 	  Q5: 3 	  Q2: 1 	  Q9: 2 	  Q4: 1 	  Q8: 1 	  Q6: 3 	  Q1: 1 	 
29	 	 	87.1	 	 Q4: 3 	  Q2: 1 	  Q5: 1 	  Q3: 2 	  Q7: 1 	  Q6: 1 	  Q9: 1 	 
30	 	 	18.6	 	 Q9: 0 	  Q6: 3 	  Q7: 0 	 
31	 	 	67.8	 	 Q4: 2 	  Q1: 0 	  Q9: 2 	 
32	 	 	46.2	 	 Q3: 1 	  Q9: 3 	  Q6: 3 	 
33	 	 	39.6	 	 Q1: 1 	  Q0: 0 	  Q8: 0 	  Q3: 0 	 
34	 	 	20.4	 	 Q3: 2 	  Q6: 1 	  Q5: 0 	  Q4: 1 	  Q2: 2 	  Q8: 3 	 
35	 	 	19.2	 	 Q6: 2 	 
36	 	 	19.9	 	 Q9: 1 	  Q5: 0 	 
37	 	 	35.4	 	 Q6: 0 	  Q4: 3 	  Q7: 3 	  Q2: 2 	  Q1: 0 	  Q5: 0 	  Q0: 2 	 
38	 	 	99.5	 	 Q9: 0 	  Q2: 3 	  Q4: 3 	 
39	 	 	46.9	 	 Q5: 2 	  Q2: 0 	  Q8: 0 	  Q0: 3 	  Q9: 3 	  Q4: 0 	  Q3: 3 	 
40	 	 	38.9	 	 Q9: 2 	  Q0: 1 	  Q7: 0 	  Q4: 1 	  Q6: 3 	  Q3: 1 	  Q8: 2 	 
========================================================== 
TaskID 	 Duration 	 Skill 	 Predecessor IDs 
1	20	Q3:	0
2	33	Q3:	3
3	24	Q7:	0
4	31	Q6:	3
5	31	Q3:	1
6	32	Q9:	1
7	25	Q1:	3
8	18	Q9:	1
9	32	Q1:	0
10	15	Q5:	3
11	15	Q9:	2
12	40	Q6:	2
13	33	Q8:	3
14	32	Q6:	2
15	24	Q4:	0
16	12	Q7:	1
17	30	Q3:	1
18	40	Q0:	3
19	15	Q7:	2
20	28	Q4:	0
21	15	Q8:	0
22	26	Q8:	1	4
23	23	Q9:	1
24	20	Q4:	1
25	38	Q9:	1
26	37	Q7:	0
27	12	Q8:	3
28	36	Q2:	1
29	25	Q9:	3
30	28	Q0:	1
31	27	Q8:	3
32	24	Q0:	1
33	22	Q8:	2
34	37	Q0:	3
35	25	Q2:	1
36	39	Q5:	2
37	10	Q4:	0
38	32	Q4:	2
39	24	Q7:	0
40	27	Q2:	1
41	25	Q5:	2
42	13	Q5:	2
43	17	Q4:	1
44	20	Q5:	2	17
45	35	Q1:	1	43
46	32	Q3:	3
47	25	Q7:	3
48	19	Q6:	3
49	40	Q7:	0
50	21	Q1:	0
51	33	Q6:	0
52	15	Q0:	0
53	11	Q7:	0	35	49
54	36	Q5:	3
55	36	Q1:	2
56	33	Q0:	1
57	37	Q2:	2
58	10	Q5:	1
59	15	Q1:	1
60	22	Q8:	1
61	37	Q8:	3	57
62	19	Q6:	0
63	29	Q0:	3
64	32	Q8:	0
65	14	Q7:	3
66	34	Q1:	1
67	25	Q7:	3
68	19	Q1:	3
69	17	Q4:	3
70	17	Q2:	1
71	36	Q5:	0
72	25	Q4:	3
73	22	Q7:	1
74	26	Q9:	3
75	30	Q0:	2
76	25	Q5:	3
77	40	Q6:	1	56
78	34	Q4:	2
79	10	Q9:	2
80	16	Q9:	0	32	25	42
81	18	Q3:	1
82	11	Q3:	0
83	40	Q6:	1
84	29	Q7:	1	82	77
85	12	Q6:	0
86	25	Q7:	2
87	15	Q9:	0
88	37	Q4:	0
89	17	Q7:	2
90	27	Q2:	2	3
91	38	Q7:	0
92	13	Q6:	1
93	36	Q8:	1	11
94	19	Q7:	1	12
95	37	Q0:	1
96	15	Q3:	0
97	10	Q9:	1
98	15	Q7:	2
99	9	Q4:	0
100	15	Q2:	2
101	40	Q5:	0
102	10	Q0:	2
103	37	Q8:	2
104	34	Q2:	1
105	25	Q5:	3	81	100	76
106	10	Q1:	1
107	32	Q0:	1
108	27	Q7:	2
109	18	Q1:	2
110	18	Q3:	0
111	31	Q6:	2	5
112	40	Q0:	3	17
113	19	Q2:	1	93
114	13	Q5:	0
115	22	Q1:	2	113
116	27	Q8:	2
117	34	Q9:	1
118	15	Q8:	3	11
119	13	Q1:	2	88	21
120	23	Q0:	3	70
121	16	Q2:	3
122	37	Q0:	3
123	26	Q8:	0	108
124	37	Q9:	2	120
125	24	Q3:	2
126	32	Q8:	1
127	39	Q3:	3	96
128	28	Q4:	3	75
129	35	Q1:	2	27	10
130	24	Q5:	2
131	13	Q6:	0
132	9	Q9:	1
133	33	Q1:	1
134	12	Q0:	2
135	9	Q4:	2	131	22	4
136	23	Q5:	1	71
137	28	Q6:	3	1
138	17	Q8:	3
139	37	Q6:	3
140	10	Q1:	3
141	17	Q1:	3
142	26	Q1:	2	133
143	25	Q7:	1
144	11	Q7:	0
145	16	Q4:	3	27
146	16	Q0:	1
147	23	Q8:	0
148	19	Q8:	0
149	21	Q2:	3
150	36	Q0:	3	115	49	4
151	19	Q1:	0
152	38	Q1:	0
153	13	Q3:	3
154	28	Q2:	3
155	37	Q2:	2	39
156	22	Q5:	3
157	28	Q9:	2
158	34	Q1:	2	46
159	29	Q0:	1	157
160	14	Q1:	0
161	26	Q1:	0
162	10	Q0:	3
163	13	Q9:	1
164	11	Q9:	2	98	70
165	33	Q7:	2	9	14
166	9	Q7:	1
167	33	Q3:	0
168	17	Q3:	3	43	125
169	10	Q6:	0
170	37	Q7:	3
171	20	Q4:	1	32
172	21	Q7:	0
173	29	Q2:	0
174	32	Q4:	0
175	31	Q7:	1
176	15	Q8:	2	99	31
177	15	Q7:	3
178	18	Q3:	3	78	29	171
179	36	Q1:	1
180	14	Q3:	0
181	34	Q2:	2	47
182	40	Q5:	3
183	29	Q3:	3	133
184	40	Q1:	0	33	43
185	22	Q4:	0	52
186	34	Q4:	2	15
187	32	Q0:	0
188	14	Q3:	3	120
189	39	Q6:	1	144	119
190	36	Q4:	3
191	19	Q8:	3	113	24	42	48
192	31	Q0:	1
193	26	Q6:	3
194	14	Q1:	1
195	10	Q7:	0
196	11	Q4:	2	149
197	38	Q6:	1
198	31	Q3:	0	6	153
199	36	Q5:	0	71
200	15	Q9:	3	141	64	148	75	152
201	37	Q1:	0
202	9	Q1:	0
203	33	Q1:	2
204	38	Q4:	0	186
205	29	Q0:	2	143
206	38	Q7:	1
207	18	Q0:	1
208	24	Q7:	2	117
209	37	Q4:	1
210	15	Q5:	1	94	153	183
211	26	Q9:	1
212	25	Q4:	3
213	34	Q0:	1
214	23	Q4:	1
215	21	Q1:	2	117
216	13	Q9:	2
217	35	Q4:	1
218	25	Q7:	1
219	35	Q8:	1
220	11	Q2:	0	62
221	19	Q3:	2
222	27	Q8:	2	21	143
223	14	Q6:	1	87
224	31	Q4:	1
225	29	Q7:	0	121
226	9	Q5:	0	35	127
227	24	Q9:	1	192	13
228	23	Q5:	0
229	16	Q4:	0
230	37	Q7:	2
231	36	Q0:	0	117
232	20	Q4:	0	128	106	200
233	14	Q4:	2	18
234	33	Q7:	2	137	39	42
235	15	Q1:	1	12
236	37	Q5:	3	86	206
237	15	Q3:	3	197
238	22	Q5:	1	144	141
239	19	Q0:	2
240	34	Q8:	2
241	32	Q9:	1	8
242	16	Q3:	1	156
243	31	Q1:	1
244	32	Q7:	3	179
245	24	Q7:	3	5
246	16	Q0:	0
247	39	Q9:	3
248	34	Q9:	2	82
249	36	Q6:	2	94	204
250	19	Q2:	0	203	173
251	38	Q1:	1
252	40	Q2:	2	77	149
253	9	Q6:	3	250	195	129
254	21	Q4:	3	103	2
255	36	Q1:	3	196
256	39	Q6:	2
257	30	Q1:	1	190
258	37	Q2:	2
259	38	Q0:	3	81
260	16	Q6:	3	227
261	19	Q7:	2	111
262	23	Q9:	3	95	202
263	32	Q2:	1
264	36	Q3:	0	170	220	216	201	239
265	28	Q0:	2	204
266	9	Q9:	1	205	168	262
267	22	Q8:	1	211
268	30	Q4:	3	151
269	34	Q3:	3	162
270	24	Q1:	3	170	124
271	35	Q1:	3	158
272	17	Q4:	1	110	22
273	25	Q4:	2	2
274	12	Q0:	2
275	9	Q9:	3	187
276	11	Q4:	2	231	70
277	38	Q2:	0	226
278	35	Q4:	3	50	27
279	29	Q9:	2	55
280	15	Q7:	0
281	27	Q8:	0	48
282	24	Q7:	2	104
283	13	Q8:	1	277	257
284	37	Q3:	1	32
285	33	Q5:	3
286	16	Q1:	2
287	22	Q1:	3	127
288	17	Q3:	1	119	7
289	22	Q2:	2	84
290	33	Q3:	2	271	170	37
291	13	Q6:	0	1
292	9	Q3:	2	166
293	16	Q8:	2	139
294	25	Q4:	0	157
295	34	Q8:	1	173	283
296	19	Q2:	3	83	133
297	18	Q8:	0
298	26	Q4:	2	222
299	21	Q3:	1	116	286
300	30	Q4:	1	105	180	185
301	11	Q6:	2	81	141
302	10	Q0:	1
303	30	Q3:	3
304	20	Q8:	1	39	69	250
305	21	Q4:	1	253
306	37	Q0:	2
307	15	Q4:	3	46
308	29	Q2:	1	207
309	13	Q9:	3	296	221
310	21	Q1:	3	28	93	48
311	30	Q8:	1	41
312	14	Q1:	3	37
313	23	Q2:	0	35	277	271
314	36	Q9:	1
315	29	Q4:	0	55
316	35	Q4:	3	312	231
317	27	Q4:	3	109	134
318	27	Q5:	0	200
319	25	Q3:	2	312
320	23	Q2:	0	183	245	170	199
321	23	Q5:	3	84	281	72
322	39	Q1:	1
323	36	Q9:	1	296	235
324	21	Q1:	1	26	253
325	23	Q8:	2
326	9	Q3:	0	113	238	283
327	11	Q5:	3
328	20	Q6:	2	178	118	204
329	39	Q6:	3
330	18	Q4:	2
331	37	Q3:	1	175
332	34	Q4:	3	41	148
333	17	Q6:	2
334	37	Q2:	3	92
335	9	Q0:	2
336	34	Q9:	0	204
337	9	Q3:	3	184	229	213
338	32	Q4:	1	56
339	39	Q4:	1	285
340	38	Q0:	2	105
341	18	Q1:	1
342	28	Q7:	1	295	319
343	28	Q2:	3
344	24	Q5:	2	34
345	32	Q1:	1	1
346	28	Q0:	2	61
347	22	Q7:	0
348	32	Q7:	2	70	217	313
349	10	Q8:	2
350	28	Q9:	1	237	36	35
351	29	Q6:	2	49
352	28	Q6:	3	181	59
353	29	Q7:	0
354	16	Q4:	3	149	229
355	28	Q2:	1	194
356	15	Q4:	3	239	47
357	22	Q8:	3	317
358	26	Q9:	2	292	207
359	26	Q1:	3	120	165
360	16	Q0:	0
361	13	Q2:	0	170
362	40	Q6:	3	173	81
363	30	Q6:	0	277
364	35	Q8:	1
365	16	Q9:	1	21	301	83
366	40	Q0:	2	343
367	31	Q5:	3	38	97	49	58	99	198
368	11	Q2:	3
369	40	Q1:	2	365	177
370	12	Q7:	0	366
371	33	Q9:	2
372	25	Q8:	0	289
373	12	Q4:	1	214	283	60	25
374	26	Q2:	3
375	38	Q4:	3	230	140	150	263
376	11	Q2:	2
377	34	Q7:	0	233	354
378	33	Q0:	3	162	72
379	23	Q0:	2	227	64
380	32	Q1:	0
381	38	Q7:	1	214	189
382	32	Q9:	0	28	43
383	37	Q4:	2	334
384	23	Q5:	3	56
385	22	Q4:	3	47
386	12	Q3:	2	165
387	10	Q6:	1	357	358	175
388	27	Q9:	1
389	35	Q3:	3	215	341
390	23	Q9:	2	331	108	51
391	10	Q6:	1	274
392	16	Q5:	2	210	290
393	40	Q7:	2
394	40	Q2:	0	173
395	25	Q0:	0	241	5	228
396	27	Q7:	0
397	22	Q3:	0
398	11	Q4:	2	102	268
399	9	Q9:	2	194	133	301
400	9	Q2:	0	31
401	22	Q1:	2	344
402	12	Q8:	3	320	323
403	23	Q4:	3	118	173
404	33	Q2:	0	208	287
405	25	Q9:	1	106	75	220
406	34	Q9:	3
407	31	Q8:	1	371	163
408	10	Q3:	2	243	130
409	37	Q2:	2	92
410	16	Q6:	3	277	246
411	10	Q2:	3	23
412	27	Q3:	3
413	31	Q8:	0	177	315
414	18	Q7:	2	339	46
415	34	Q5:	1	348	182
416	20	Q9:	0	213
417	34	Q5:	1	173	288	260
418	13	Q3:	1	271	50
419	16	Q1:	0	128	23	60	81
420	36	Q4:	0	94
421	28	Q9:	2	129	116	372	157
422	39	Q5:	1	346	254
423	11	Q9:	3
424	30	Q3:	2
425	38	Q2:	0	216	418
426	17	Q5:	3
427	37	Q2:	0	381	385	160
428	27	Q3:	3
429	25	Q6:	0	302	127	334
430	27	Q6:	2	427
431	34	Q4:	3
432	29	Q0:	0
433	37	Q0:	1	143	414	277	203
434	10	Q4:	0	383	100
435	26	Q6:	1	338	123	390	433
436	16	Q0:	0	257
437	31	Q6:	3	220	122
438	39	Q8:	0	359	271	3	40
439	38	Q6:	3	156	126
440	13	Q0:	3	147	64
441	14	Q8:	1	280	159
442	38	Q7:	0	25
443	25	Q0:	0	439	244
444	18	Q7:	0	195
445	35	Q3:	2	80	69
446	26	Q6:	0	289	134	180	359
447	25	Q2:	1
448	10	Q5:	1	43	67
449	17	Q8:	2	435
450	40	Q0:	0	344	69
451	21	Q4:	3	355
452	34	Q6:	2	52	104
453	40	Q8:	0	191	236	297
454	36	Q6:	2	407
455	13	Q1:	1	332	42
456	29	Q2:	1	232	74
457	36	Q7:	3	104
458	35	Q8:	2
459	28	Q4:	2	443	374
460	39	Q6:	1	316	166	38
461	31	Q0:	1	425
462	31	Q9:	0
463	29	Q7:	2	81	62	179
464	17	Q3:	1	123	417
465	29	Q8:	2	359	42
466	26	Q1:	0	306	257
467	14	Q6:	0	182
468	37	Q7:	2	189	340	28	265	54	222
469	17	Q0:	2	63	146	347
470	14	Q0:	1	328	454	127	327	447
471	30	Q5:	2	331	319	250
472	22	Q2:	3	44	386	283
473	36	Q0:	1	390	141
474	18	Q7:	2
475	36	Q4:	1	100
476	16	Q3:	0
477	32	Q5:	2	433	212	201	93
478	37	Q3:	1	29	130	228	298
479	16	Q9:	2	100
480	10	Q5:	1	330
481	14	Q1:	3	186
482	13	Q3:	2	467	270	40	117
483	34	Q1:	0	153	115	349	465
484	16	Q0:	2	118	68
485	32	Q2:	3
486	17	Q5:	2	422	261	60
487	9	Q8:	0	55	353
488	31	Q1:	0	101
489	22	Q1:	0	455	416
490	15	Q8:	0	410	197
491	35	Q9:	3	227
492	20	Q5:	2	461
493	37	Q6:	0	328
494	29	Q7:	2	262
495	22	Q6:	0	395	129
496	39	Q0:	0	437	353	105	493
497	39	Q0:	0	162
498	22	Q7:	0	388	375	408
499	11	Q4:	0	168	492
500	35	Q1:	1	266	400	103
========================================================== 